33296.78,39.23,43.2
34121.58,38.28,42.16
32387.95,40.33,44.41
31754.74,41.13,45.3
38006.55,34.37,37.85
34121.77,38.28,42.16
35244.91,37.06,40.81
32706.93,39.94,43.98
34387.15,37.99,41.83
35986.5,36.3,39.97
34504.25,37.86,41.69
32825.88,39.79,43.82
33927.71,38.5,42.4
33720.37,38.74,42.66
33979.89,38.44,42.33
35380.84,36.92,40.66
35068.89,37.25,41.02
38591.81,33.85,37.27
34645.11,37.7,41.52
37217.61,35.1,38.65
